proyfinal/src/viki/013/experimentInOfficeAgust.take6.output/7b27efab-aedd-4c9e-9eeb-3ee81d85df00.als.dat
{'cnf.clauses': '118081',
 'cnf.totvars': '69608',
 'conflict literals': '7',
 'conflicts': '6',
 'decisions': '1160',
 'memused.mb': '18.49',
 'outcome': 'UNSAT',
 'propagations': '22178',
 'restarts': '1',
 'solver.msecs': 33,
 'task.msecs': 91}
