proyfinal/src/viki/013/experimentInOfficeAgust.take6.output/7b27efab-aedd-4c9e-9eeb-3ee81d85df00.als.out
Reading from standard input... Use '--help' for help.
============================[ Problem Statistics ]=============================
|                                                                             |
|  Number of variables:         69608                                         |
|  Number of clauses:          118081                                         |
|  Parse time:                   0.03 s                                       |
|                                                                             |
============================[ Search Statistics ]==============================
| Conflicts |          ORIGINAL         |          LEARNT          | Progress |
|           |    Vars  Clauses Literals |    Limit  Clauses Lit/Cl |          |
===============================================================================
===============================================================================
restarts              : 1
conflicts             : 6              (179 /sec)
decisions             : 1160           (0.00 % random) (34640 /sec)
propagations          : 22178          (662287 /sec)
conflict literals     : 7              (0.00 % deleted)
Memory used           : 18.49 MB
CPU time              : 0.033487 s

UNSATISFIABLE
